NAME : P-n76-k5.525633.tour
COMMENT : Length = 525633
COMMENT : Found by LKH [Keld Helsgaun] Sun Dec 17 22:38:52 2017
TYPE : TOUR
DIMENSION : 80
TOUR_SECTION
1
68
35
53
28
46
30
49
6
16
58
14
55
20
15
60
78
76
69
7
52
17
64
34
2
74
63
23
65
43
42
44
24
57
80
27
47
9
36
8
54
12
67
66
39
11
32
77
18
41
13
59
73
40
10
33
45
4
50
25
19
51
26
56
79
5
31
3
75
29
62
22
48
37
70
72
61
71
21
38
-1
EOF
